data/solutions/recovery/wellformed/moderate/flexible/wellformed_moderate_instance11/10.sol
Elapsed time: 0.07
Upper bound: 11161.0
Planning weighted value: 90959.0
C[0]=11161.0
C[1]=11160.0
C[2]=11151.0
y[0]=0
y[1]=0
y[2]=0
y[3]=2
y[4]=1
y[5]=0
y[6]=1
y[7]=0
y[8]=0
y[9]=2
y[10]=0
y[11]=1
y[12]=2
y[13]=2
y[14]=2
y[15]=0
y[16]=1
y[17]=0
y[18]=1
y[19]=1
y[20]=2
y[21]=0
y[22]=0
y[23]=2
y[24]=1
y[25]=1
y[26]=2
y[27]=1
y[28]=0
y[29]=1
y[30]=2
y[31]=0
y[32]=2
