data/solutions/recovery/wellformed/moderate/flexible/wellformed_moderate_instance11/10.log

Log started (V12.6.3.0) Fri Apr 20 20:57:04 2018

New value for default parallel thread count: 1

Problem '/tmp/tmpFvFIep.pyomo.lp' read.
Read time = 0.00 sec. (0.03 ticks)

Problem name         : /tmp/tmpFvFIep.pyomo.lp
Objective sense      : Minimize
Variables            :     104  [Nneg: 1,  Binary: 99,  General Integer: 4]
Objective nonzeros   :       1
Linear constraints   :      73  [Less: 36,  Equal: 37]
  Nonzeros           :    2185
  RHS nonzeros       :      67

Variables            : Min LB: 0.000000         Max UB: 1.000000       
Objective nonzeros   : Min   : 1.000000         Max   : 1.000000       
Linear constraints   :
  Nonzeros           : Min   : 1.000000         Max   : 1950.000       
  RHS nonzeros       : Min   : 1.000000         Max   : 4.000000       
Tried aggregator 2 times.
MIP Presolve eliminated 33 rows and 3 columns.
Aggregator did 4 substitutions.
Reduced MIP has 36 rows, 97 columns, and 253 nonzeros.
Reduced MIP has 96 binaries, 1 generals, 0 SOSs, and 0 indicators.
Presolve time = 0.00 sec. (0.76 ticks)
Found incumbent of value 33472.000000 after 0.00 sec. (0.94 ticks)
Probing time = 0.00 sec. (0.07 ticks)
Cover probing fixed 0 vars, tightened 1 bounds.
Tried aggregator 1 time.
Reduced MIP has 36 rows, 97 columns, and 253 nonzeros.
Reduced MIP has 96 binaries, 1 generals, 0 SOSs, and 0 indicators.
Presolve time = 0.00 sec. (0.17 ticks)
Probing time = 0.00 sec. (0.04 ticks)
Clique table members: 32.
MIP emphasis: balance optimality and feasibility.
MIP search method: dynamic search.
Parallel mode: none, using 1 thread.
Root relaxation solution time = 0.00 sec. (0.10 ticks)

        Nodes                                         Cuts/
   Node  Left     Objective  IInf  Best Integer    Best Bound    ItCnt     Gap

*     0+    0                        33472.0000     1950.0000            94.17%
      0     0    11157.3333     7    33472.0000    11157.3333       11   66.67%
*     0+    0                        11909.0000    11157.3333             6.31%
      0     0    11158.0000     6    11909.0000      Fract: 2       20    6.31%
      0     0    11158.0000     8    11909.0000       Cuts: 8       33    6.31%
*     0+    0                        11813.0000    11158.0000             5.54%
      0     0    11158.0000    10    11813.0000       Cuts: 5       45    5.54%
*     0+    0                        11531.0000    11158.0000             3.23%
*     0+    0                        11467.0000    11158.0000             2.69%
*     0+    0                        11440.0000    11158.0000             2.47%
*     0+    0                        11171.0000    11158.0000             0.12%
      0     2    11158.0000     5    11171.0000    11158.0000       45    0.12%
Elapsed time = 0.02 sec. (5.34 ticks, tree = 0.01 MB, solutions = 7)
*   468    32      integral     0    11170.0000    11158.0000     1122    0.11%
*   492    28      integral     0    11164.0000    11158.0000     1184    0.05%
*   527    22      integral     0    11161.0000    11158.0000     1313    0.03%

Mixed integer rounding cuts applied:  4

Root node processing (before b&c):
  Real time             =    0.02 sec. (5.34 ticks)
Sequential b&c:
  Real time             =    0.04 sec. (20.76 ticks)
                          ------------
Total (root+branch&cut) =    0.06 sec. (26.10 ticks)

Solution pool: 10 solutions saved.

MIP - Integer optimal, tolerance (0.0001/1e-06):  Objective =  1.1161000000e+04
Current MIP best bound =  1.1159966739e+04 (gap = 1.03326, 0.01%)
Solution time =    0.06 sec.  Iterations = 1881  Nodes = 716 (1)
Deterministic time = 26.10 ticks  (445.58 ticks/sec)


Incumbent solution written to file '/tmp/tmpHXMIYA.cplex.sol'.
